6612.0 
6584.0 
6544.0 
6529.0 
6567.0 
6541.0 
6549.0 
6606.0 
6594.0 
6599.0 
6601.0 
6535.0 
6596.0 
6685.0 
6492.0 
6575.0 
6442.0 
6515.0 
6545.0 
6645.0 
6511.0 
6529.0 
6563.0 
6541.0 
6548.0 
6630.0 
6598.0 
6572.0 
6544.0 
6585.0 
6532.0 
